INPUT_PARAMETERS
suffix                          ABACUS
calculation                     scf
ecutwfc                         100
scf_thr                         1.0e-6
scf_nmax                        200
out_chg                         0
smearing_method                 gauss
smearing_sigma                  0.01
mixing_type                     broyden
mixing_ndim                     10
mixing_beta                     0.4
mixing_beta_mag			0.8
mixing_gg0_mag                  0
ks_solver                       genelpa
basis_type                      lcao
symmetry                        0
noncolin			1
lspinorb			1
nspin                           4
out_mul                         true
kspacing			0.13

#deltaspin
sc_mag_switch                   1
decay_grad_switch               1
sc_thr                          1e-7
nsc                             100
nsc_min                         2
sc_file                         sc.json
alpha_trial                     0.01
sccut                           3
