ATOMIC_SPECIES
C 12.010700 C.upf
Fe 55.845000 Fe_ONCV_PBE-1.2.upf
H 1.007900 H.upf
O 15.999400 O.upf
Sb 121.760000 Sb_ONCV_PBE-1.1.upf
Y 88.905900 Y.upf

NUMERICAL_ORBITAL
C_gga_8au_100Ry_2s2p1d.orb
Fe_gga_7au_100Ry_4s2p2d1f.orb
H_gga_6au_100Ry_2s1p.orb
O_gga_6au_100Ry_2s2p1d.orb
Sb_gga_10au_100Ry_2s2p2d1f.orb
Y_gga_10au_100Ry_4s2p2d1f.orb

LATTICE_CONSTANT
1.889726

LATTICE_VECTORS
    8.30040359497     0.00000000000     0.00000000000
    4.15020179749     7.18836069107     0.00000000000
   -0.00000000000     0.00000000000    29.28887367249

ATOMIC_POSITIONS
Cartesian

C
0.000000
2
    3.95364121662     5.11084808597    21.35954476581 1 1 1 
    4.38936163299     3.74401887300    21.86300664196 1 1 1 

Fe
0.000000
2
    4.56727406495     6.38408168900    17.20160875496 1 1 1 
    4.63529396057     6.34815692902    13.59840583801 0 0 0 

H
0.000000
6
    4.81528460901     5.80354535355    21.28923406874 1 1 1 
   11.50915700187     5.56836280435    22.03630805271 1 1 1 
    3.64689790186     5.84477775685    19.46480319804 1 1 1 
    5.17430812667     3.31797732222    21.21476395627 1 1 1 
    3.54101273195     3.04018158464    21.89889760565 1 1 1 
    4.79892043517     3.83550324524    22.88441963825 1 1 1 

O
0.000000
1
    3.35076548513     5.01699519531    20.03748101776 1 1 1 

Sb
0.000000
4
    8.81115401518     3.97406745592    16.05888674391 1 1 1 
    4.63324349443     1.59899180785    16.09729877824 1 1 1 
    8.78549575806     3.95203685761    11.50634288788 0 0 0 
    4.63529396057     1.55591654778    11.50634288788 0 0 0 

Y
0.000000
12
   10.86225049578     6.37914257845    15.57300371265 1 1 1 
    3.23658558933     3.93315033283    17.95603112816 1 1 1 
    7.63388711497     1.48770120111    17.93113127015 1 1 1 
    5.68649840738     4.60413097915    15.57673101507 1 1 1 
    1.51126640010     0.93352604247    15.45749922934 1 1 1 
    7.01176223148     6.55614211101    18.04007527050 1 1 1 
   10.99533081055     6.34815692902    11.50634288788 0 0 0 
    2.98265337944     3.48569989204    13.59840583801 0 0 0 
    7.13285541534     2.02225351334    13.59840583801 0 0 0 
    5.60547733307     4.66774988174    11.50634288788 0 0 0 
    1.45527541637     0.84020370245    11.50634288788 0 0 0 
    7.94057464600     6.34815692902    13.59840583801 0 0 0 
